p cnf 93 304
e 4 5 6 13 14 15 22 23 24 31 32 33 40 41 42 49 50 51 58 59 60 67 68 69 76 77 78 85 86 87 0
r 0.850000 7 0
r 0.150000 8 0
r 0.850000 16 0
r 0.150000 17 0
r 0.850000 25 0
r 0.150000 26 0
r 0.850000 34 0
r 0.150000 35 0
r 0.850000 43 0
r 0.150000 44 0
r 0.850000 52 0
r 0.150000 53 0
r 0.850000 61 0
r 0.150000 62 0
r 0.850000 70 0
r 0.150000 71 0
r 0.850000 79 0
r 0.150000 80 0
r 0.850000 88 0
r 0.150000 89 0
e 1 2 3 9 10 11 12 18 19 20 21 27 28 29 30 36 37 38 39 45 46 47 48 54 55 56 57 63 64 65 66 72 73 74 75 81 82 83 84 90 91 92 93 0
-1 0
-2 0
-92 0
93 0
4 5 6 0
-4 -5 0
-4 -6 0
-5 -6 0
-4 -3 -7 10 0
-4 -3 7 -10 0
-4 3 -8 10 0
-4 3 8 -10 0
-5 -10 0
-6 -10 0
-4 -3 9 0
-4 3 -9 0
-5 -3 9 0
-5 3 -9 0
-6 -3 9 0
-6 3 -9 0
-4 -1 11 0
-4 1 -11 0
-5 -1 11 0
-5 1 -3 11 0
-5 1 3 -11 0
-6 -1 11 0
-6 1 -3 -11 0
-6 1 3 11 0
-4 -2 12 0
-4 2 -12 0
-5 -3 -12 0
-5 3 12 0
-6 -3 12 0
-6 3 -12 0
13 14 15 0
-13 -14 0
-13 -15 0
-14 -15 0
-13 -12 -16 19 0
-13 -12 16 -19 0
-13 12 -17 19 0
-13 12 17 -19 0
-14 -19 0
-15 -19 0
-13 -12 18 0
-13 12 -18 0
-14 -12 18 0
-14 12 -18 0
-15 -12 18 0
-15 12 -18 0
-13 -10 20 0
-13 10 -20 0
-14 -10 20 0
-14 10 -12 20 0
-14 10 12 -20 0
-15 -10 20 0
-15 10 -12 -20 0
-15 10 12 20 0
-13 -11 21 0
-13 11 -21 0
-14 -12 -21 0
-14 12 21 0
-15 -12 21 0
-15 12 -21 0
22 23 24 0
-22 -23 0
-22 -24 0
-23 -24 0
-22 -21 -25 28 0
-22 -21 25 -28 0
-22 21 -26 28 0
-22 21 26 -28 0
-23 -28 0
-24 -28 0
-22 -21 27 0
-22 21 -27 0
-23 -21 27 0
-23 21 -27 0
-24 -21 27 0
-24 21 -27 0
-22 -19 29 0
-22 19 -29 0
-23 -19 29 0
-23 19 -21 29 0
-23 19 21 -29 0
-24 -19 29 0
-24 19 -21 -29 0
-24 19 21 29 0
-22 -20 30 0
-22 20 -30 0
-23 -21 -30 0
-23 21 30 0
-24 -21 30 0
-24 21 -30 0
31 32 33 0
-31 -32 0
-31 -33 0
-32 -33 0
-31 -30 -34 37 0
-31 -30 34 -37 0
-31 30 -35 37 0
-31 30 35 -37 0
-32 -37 0
-33 -37 0
-31 -30 36 0
-31 30 -36 0
-32 -30 36 0
-32 30 -36 0
-33 -30 36 0
-33 30 -36 0
-31 -28 38 0
-31 28 -38 0
-32 -28 38 0
-32 28 -30 38 0
-32 28 30 -38 0
-33 -28 38 0
-33 28 -30 -38 0
-33 28 30 38 0
-31 -29 39 0
-31 29 -39 0
-32 -30 -39 0
-32 30 39 0
-33 -30 39 0
-33 30 -39 0
40 41 42 0
-40 -41 0
-40 -42 0
-41 -42 0
-40 -39 -43 46 0
-40 -39 43 -46 0
-40 39 -44 46 0
-40 39 44 -46 0
-41 -46 0
-42 -46 0
-40 -39 45 0
-40 39 -45 0
-41 -39 45 0
-41 39 -45 0
-42 -39 45 0
-42 39 -45 0
-40 -37 47 0
-40 37 -47 0
-41 -37 47 0
-41 37 -39 47 0
-41 37 39 -47 0
-42 -37 47 0
-42 37 -39 -47 0
-42 37 39 47 0
-40 -38 48 0
-40 38 -48 0
-41 -39 -48 0
-41 39 48 0
-42 -39 48 0
-42 39 -48 0
49 50 51 0
-49 -50 0
-49 -51 0
-50 -51 0
-49 -48 -52 55 0
-49 -48 52 -55 0
-49 48 -53 55 0
-49 48 53 -55 0
-50 -55 0
-51 -55 0
-49 -48 54 0
-49 48 -54 0
-50 -48 54 0
-50 48 -54 0
-51 -48 54 0
-51 48 -54 0
-49 -46 56 0
-49 46 -56 0
-50 -46 56 0
-50 46 -48 56 0
-50 46 48 -56 0
-51 -46 56 0
-51 46 -48 -56 0
-51 46 48 56 0
-49 -47 57 0
-49 47 -57 0
-50 -48 -57 0
-50 48 57 0
-51 -48 57 0
-51 48 -57 0
58 59 60 0
-58 -59 0
-58 -60 0
-59 -60 0
-58 -57 -61 64 0
-58 -57 61 -64 0
-58 57 -62 64 0
-58 57 62 -64 0
-59 -64 0
-60 -64 0
-58 -57 63 0
-58 57 -63 0
-59 -57 63 0
-59 57 -63 0
-60 -57 63 0
-60 57 -63 0
-58 -55 65 0
-58 55 -65 0
-59 -55 65 0
-59 55 -57 65 0
-59 55 57 -65 0
-60 -55 65 0
-60 55 -57 -65 0
-60 55 57 65 0
-58 -56 66 0
-58 56 -66 0
-59 -57 -66 0
-59 57 66 0
-60 -57 66 0
-60 57 -66 0
67 68 69 0
-67 -68 0
-67 -69 0
-68 -69 0
-67 -66 -70 73 0
-67 -66 70 -73 0
-67 66 -71 73 0
-67 66 71 -73 0
-68 -73 0
-69 -73 0
-67 -66 72 0
-67 66 -72 0
-68 -66 72 0
-68 66 -72 0
-69 -66 72 0
-69 66 -72 0
-67 -64 74 0
-67 64 -74 0
-68 -64 74 0
-68 64 -66 74 0
-68 64 66 -74 0
-69 -64 74 0
-69 64 -66 -74 0
-69 64 66 74 0
-67 -65 75 0
-67 65 -75 0
-68 -66 -75 0
-68 66 75 0
-69 -66 75 0
-69 66 -75 0
76 77 78 0
-76 -77 0
-76 -78 0
-77 -78 0
-76 -75 -79 82 0
-76 -75 79 -82 0
-76 75 -80 82 0
-76 75 80 -82 0
-77 -82 0
-78 -82 0
-76 -75 81 0
-76 75 -81 0
-77 -75 81 0
-77 75 -81 0
-78 -75 81 0
-78 75 -81 0
-76 -73 83 0
-76 73 -83 0
-77 -73 83 0
-77 73 -75 83 0
-77 73 75 -83 0
-78 -73 83 0
-78 73 -75 -83 0
-78 73 75 83 0
-76 -74 84 0
-76 74 -84 0
-77 -75 -84 0
-77 75 84 0
-78 -75 84 0
-78 75 -84 0
85 86 87 0
-85 -86 0
-85 -87 0
-86 -87 0
-85 -84 -88 91 0
-85 -84 88 -91 0
-85 84 -89 91 0
-85 84 89 -91 0
-86 -91 0
-87 -91 0
-85 -84 90 0
-85 84 -90 0
-86 -84 90 0
-86 84 -90 0
-87 -84 90 0
-87 84 -90 0
-85 -82 92 0
-85 82 -92 0
-86 -82 92 0
-86 82 -84 92 0
-86 82 84 -92 0
-87 -82 92 0
-87 82 -84 -92 0
-87 82 84 92 0
-85 -83 93 0
-85 83 -93 0
-86 -84 -93 0
-86 84 93 0
-87 -84 93 0
-87 84 -93 0
